(set-logic ALL)
(set-option :produce-models true)
(declare-sort BoundSet 0)
(declare-sort UnboundSet 0)
(declare-fun IsPlaying (BoundSet) Bool)
(declare-fun IsSmoking (BoundSet) Bool)
(assert (not (=> (exists ((c BoundSet)) (exists ((a BoundSet)) (and (IsPlaying a) (IsSmoking c)))) (exists ((a BoundSet)) (IsPlaying a)))))
(check-sat)
(get-model)